NAME : mEgtspf
TYPE : ATSP
DIMENSION : 6
EDGE_WEIGHT_TYPE : EXPLICIT
EDGE_WEIGHT_FORMAT : FULL_MATRIX
EDGE_WEIGHT_SECTION
99999 99999 0 2 0 0 
4 99999 0 6 0 0 
99999 5 99999 -999995 0 0 
99999 99999 0 99999 0 0 
99999 99999 0 99999 99999 0 
-999996 99999 0 6 0 99999 
EOF
